NAME : rnd40_50.tsp
TYPE : TSP
DIMENSION : 50
EDGE_WEIGHT_TYPE : EUC_2D
NODE_COORD_SECTION
1 502 783
2 43 646
3 164 421
4 515 120
5 794 74
6 737 171
7 21 34
8 66 875
9 88 83
10 406 678
11 566 129
12 493 807
13 518 756
14 705 374
15 247 386
16 558 704
17 136 31
18 448 521
19 288 930
20 649 267
21 417 173
22 569 87
23 854 501
24 904 382
25 175 15
26 498 184
27 872 838
28 399 434
29 838 46
30 673 576
31 254 664
32 555 383
33 904 293
34 538 940
35 955 667
36 25 72
37 112 435
38 349 819
39 315 995
40 599 948
41 96 582
42 726 36
43 345 874
44 930 858
45 137 743
46 591 744
47 430 597
48 931 977
49 362 934
50 104 533
